(set-option :produce-models true); benchmark generated from python API
(set-info :status unknown)
(declare-fun l_1_0_9 () Real)
(declare-fun l_1_0_8 () Real)
(declare-fun l_1_0_5 () Real)
(declare-fun l_1_0_4 () Real)
(declare-fun l_1_0_3 () Real)
(declare-fun _a_0_ () Real)
(declare-fun l_1_0_7 () Real)
(declare-fun l_1_0_6 () Real)
(declare-fun l_1_0_10 () Real)
(declare-fun l_1_0_1 () Real)
(declare-fun _a_1_ () Real)
(declare-fun l_1_0_2 () Real)
(declare-fun l_1_0_11 () Real)
(declare-fun _a_2_ () Real)
(declare-fun l_1_1_8 () Real)
(declare-fun l_1_1_6 () Real)
(declare-fun l_1_1_5 () Real)
(declare-fun l_1_1_4 () Real)
(declare-fun l_1_1_2 () Real)
(declare-fun l_1_1_15 () Real)
(declare-fun l_1_1_14 () Real)
(declare-fun l_1_1_13 () Real)
(declare-fun l_1_1_10 () Real)
(declare-fun l_1_1_1 () Real)
(declare-fun l_1_1_9 () Real)
(declare-fun l_1_1_7 () Real)
(declare-fun l_1_1_3 () Real)
(declare-fun l_1_1_12 () Real)
(declare-fun l_1_1_11 () Real)
(declare-fun l_1_1_16 () Real)
(declare-fun l_1_1_17 () Real)
(declare-fun l_1_2_9 () Real)
(declare-fun l_1_2_7 () Real)
(declare-fun l_1_2_6 () Real)
(declare-fun l_1_2_5 () Real)
(declare-fun l_1_2_4 () Real)
(declare-fun l_1_2_15 () Real)
(declare-fun l_1_2_14 () Real)
(declare-fun l_1_2_13 () Real)
(declare-fun l_1_2_10 () Real)
(declare-fun l_1_2_1 () Real)
(declare-fun l_1_2_8 () Real)
(declare-fun l_1_2_3 () Real)
(declare-fun l_1_2_2 () Real)
(declare-fun l_1_2_12 () Real)
(declare-fun l_1_2_11 () Real)
(declare-fun l_1_2_16 () Real)
(declare-fun l_1_2_17 () Real)
(assert
 (let ((?x28 (* l_1_0_9 l_1_0_9)))
 (let ((?x541 (- (- (- (- (- _a_0_ l_1_0_3) l_1_0_4) l_1_0_5) l_1_0_8) ?x28)))
 (= ?x541 0.0))))
(assert
 (let ((?x203 (* 80.0 l_1_0_7)))
 (let ((?x136 (* 80.0 l_1_0_6)))
 (let ((?x492 (- (- _a_1_ (* 80.0 l_1_0_1)) (* (* 2.0 l_1_0_10) l_1_0_9))))
 (= (- (- ?x492 ?x136) ?x203) 0.0)))))
(assert
 (let ((?x424 (* 6400.0 l_1_0_2)))
 (let ((?x421 (* l_1_0_11 l_1_0_11)))
 (let ((?x78 (+ (- (- (- (+ _a_2_ l_1_0_1) (* l_1_0_10 l_1_0_10)) ?x421) ?x424) l_1_0_6)))
 (= (+ ?x78 l_1_0_7) 0.0)))))
(assert
 (= (* 160.0 l_1_0_2) 0.0))
(assert
 (= (- l_1_0_2) 0.0))
(assert
 (>= l_1_0_1 0.0))
(assert
 (>= l_1_0_2 0.0))
(assert
 (>= l_1_0_3 0.0))
(assert
 (>= l_1_0_4 0.0))
(assert
 (>= l_1_0_5 0.0))
(assert
 (>= l_1_0_6 0.0))
(assert
 (>= l_1_0_7 0.0))
(assert
 (>= l_1_0_8 0.0))
(assert
 (>= l_1_0_9 0.0))
(assert
 (>= l_1_0_11 0.0))
(assert
 (let ((?x265 (* 6724.0 l_1_1_8)))
 (let ((?x215 (* 82.0 l_1_1_2)))
 (let ((?x299 (* l_1_1_15 l_1_1_15)))
 (let ((?x14 (* 82.0 l_1_1_10)))
 (let ((?x16 (* 82.0 l_1_1_1)))
 (let ((?x19 (* _a_0_ l_1_1_7)))
 (let ((?x20 (* _a_0_ l_1_1_3)))
 (let ((?x320 (- (- (- (* (* 82.0 _a_0_) l_1_1_11) (* _a_0_ l_1_1_12)) ?x20) ?x19)))
 (let ((?x200 (- (+ (+ (+ ?x320 (* (* 82.0 _a_0_) l_1_1_9)) ?x16) ?x14) (* (* l_1_1_13 _a_0_) _a_0_))))
 (let ((?x302 (- (- (- (+ (- (- ?x200 l_1_1_14) ?x299) ?x215) l_1_1_4) l_1_1_5) l_1_1_6)))
 (= (- (- ?x302 ?x265) 790.0) 0.0))))))))))))
(assert
 (let ((?x82 (* 13284.0 l_1_1_8)))
 (let ((?x113 (* 81.0 l_1_1_2)))
 (let ((?x117 (* 81.0 l_1_1_10)))
 (let ((?x132 (* 81.0 l_1_1_1)))
 (let ((?x10 (* _a_1_ l_1_1_7)))
 (let ((?x11 (* _a_1_ l_1_1_3)))
 (let ((?x13 (* _a_1_ l_1_1_12)))
 (let ((?x133 (- (- (- (* (* (* (- 2.0) _a_0_) _a_1_) l_1_1_13) ?x13) ?x11) ?x10)))
 (let ((?x109 (- (+ (+ ?x133 ?x132) ?x117) (* l_1_1_11 (- (* (- 81.0) _a_0_) (* 82.0 _a_1_))))))
 (let ((?x85 (- (- (+ (- ?x109 (* (* 2.0 l_1_1_15) l_1_1_16)) ?x113) ?x82) (* l_1_1_9 (- (* (- 81.0) _a_0_) (* 82.0 _a_1_))))))
 (= (- ?x85 69.0) 0.0))))))))))))
(assert
 (let ((?x506 (* 6397.0 l_1_1_8)))
 (let ((?x346 (* l_1_1_17 l_1_1_17)))
 (let ((?x341 (* l_1_1_16 l_1_1_16)))
 (let ((?x240 (* _a_2_ l_1_1_7)))
 (let ((?x251 (- (- (- (* (- _a_2_) l_1_1_12) (* _a_2_ l_1_1_3)) ?x240) l_1_1_1)))
 (let ((?x246 (- (- ?x251 l_1_1_10) (* l_1_1_11 (- (- _a_0_ (* 81.0 _a_1_)) (* 82.0 _a_2_))))))
 (let ((?x340 (- ?x246 (* l_1_1_13 (+ (* (* 2.0 _a_0_) _a_2_) (* _a_1_ _a_1_))))))
 (let ((?x502 (- (- (- (- (- ?x340 ?x341) ?x346) l_1_1_2) ?x506) (* l_1_1_9 (- (- _a_0_ (* 81.0 _a_1_)) (* 82.0 _a_2_))))))
 (= (+ ?x502 1.0) 0.0))))))))))
(assert
 (let ((?x522 (* 162.0 l_1_1_8)))
 (let ((?x537 (- (* (* (* (- 2.0) _a_1_) _a_2_) l_1_1_13) (* l_1_1_11 (- _a_1_ (* 81.0 _a_2_))))))
 (= (- (+ ?x537 ?x522) (* l_1_1_9 (- _a_1_ (* 81.0 _a_2_)))) 0.0))))
(assert
 (let ((?x549 (- (- (* (- _a_2_) l_1_1_11) (* _a_2_ l_1_1_9)) (* (* l_1_1_13 _a_2_) _a_2_))))
 (= (- ?x549 l_1_1_8) 0.0)))
(assert
 (>= l_1_1_1 0.0))
(assert
 (>= l_1_1_2 0.0))
(assert
 (>= l_1_1_3 0.0))
(assert
 (>= l_1_1_4 0.0))
(assert
 (>= l_1_1_5 0.0))
(assert
 (>= l_1_1_6 0.0))
(assert
 (>= l_1_1_7 0.0))
(assert
 (>= l_1_1_8 0.0))
(assert
 (>= l_1_1_9 0.0))
(assert
 (>= l_1_1_10 0.0))
(assert
 (>= l_1_1_11 0.0))
(assert
 (>= l_1_1_12 0.0))
(assert
 (>= l_1_1_13 0.0))
(assert
 (>= l_1_1_14 0.0))
(assert
 (>= l_1_1_15 0.0))
(assert
 (>= l_1_1_17 0.0))
(assert
 (let ((?x613 (* 82.0 l_1_2_9)))
 (let ((?x608 (* 6724.0 l_1_2_6)))
 (let ((?x605 (* 82.0 l_1_2_4)))
 (let ((?x603 (* l_1_2_15 l_1_2_15)))
 (let ((?x599 (* 82.0 l_1_2_10)))
 (let ((?x596 (* (/ 1.0 4.0) _a_2_)))
 (let ((?x593 (* (/ 1.0 2.0) _a_1_)))
 (let ((?x589 (* _a_0_ l_1_2_8)))
 (let ((?x587 (* _a_0_ l_1_2_3)))
 (let ((?x586 (- (- (* (* (- 82.0) _a_0_) l_1_2_11) (* _a_0_ l_1_2_12)) (* (* 82.0 _a_0_) l_1_2_2))))
 (let ((?x600 (- (- (+ (+ (+ (- (- ?x586 ?x587) ?x589) _a_0_) ?x593) ?x596) l_1_2_1) ?x599)))
 (let ((?x609 (- (- (- (- (- (- ?x600 l_1_2_13) l_1_2_14) ?x603) ?x605) l_1_2_5) ?x608)))
 (= (- (- ?x609 (* (* l_1_2_7 _a_0_) _a_0_)) ?x613) 0.0))))))))))))))
(assert
 (let ((?x695 (* 81.0 l_1_2_9)))
 (let ((?x693 (* 13284.0 l_1_2_6)))
 (let ((?x691 (* 81.0 l_1_2_4)))
 (let ((?x680 (* 81.0 l_1_2_10)))
 (let ((?x675 (* _a_1_ l_1_2_8)))
 (let ((?x673 (* _a_1_ l_1_2_3)))
 (let ((?x671 (* _a_1_ l_1_2_12)))
 (let ((?x676 (- (- (- (* (* (* (- 2.0) _a_0_) _a_1_) l_1_2_7) ?x671) ?x673) ?x675)))
 (let ((?x685 (- (- (+ (+ ?x676 _a_1_) (* 1.0 _a_2_)) ?x680) (* l_1_2_11 (+ (* 81.0 _a_0_) (* 82.0 _a_1_))))))
 (let ((?x690 (- (- ?x685 (* (* 2.0 l_1_2_15) l_1_2_16)) (* l_1_2_2 (+ (* 81.0 _a_0_) (* 82.0 _a_1_))))))
 (= (- (- (- ?x690 ?x691) ?x693) ?x695) 0.0))))))))))))
(assert
 (let ((?x799 (* 6397.0 l_1_2_6)))
 (let ((?x101 (* 82.0 _a_2_)))
 (let ((?x789 (+ (+ (- _a_0_) (* 81.0 _a_1_)) ?x101)))
 (let ((?x794 (* l_1_2_17 l_1_2_17)))
 (let ((?x792 (* l_1_2_16 l_1_2_16)))
 (let ((?x784 (* (/ 9997291.0 10000000.0) _a_2_)))
 (let ((?x781 (* _a_2_ l_1_2_8)))
 (let ((?x779 (* _a_2_ l_1_2_3)))
 (let ((?x785 (+ (- (- (- (* (- (/ 2709.0 10000000.0)) _a_1_) (* _a_2_ l_1_2_12)) ?x779) ?x781) ?x784)))
 (let ((?x797 (- (- (- (- (+ ?x785 l_1_2_10) (* l_1_2_11 ?x789)) ?x792) ?x794) (* l_1_2_2 ?x789))))
 (let ((?x802 (- (- (+ ?x797 l_1_2_4) ?x799) (* l_1_2_7 (+ (* (* 2.0 _a_0_) _a_2_) (* _a_1_ _a_1_))))))
 (= (+ ?x802 l_1_2_9) 0.0)))))))))))))
(assert
 (let ((?x907 (- (- (* (* (* (- 2.0) _a_1_) _a_2_) l_1_2_7) (* (/ 2709.0 5000000.0) _a_2_)) (* l_1_2_11 (+ (- _a_1_) (* 81.0 _a_2_))))))
 (let ((?x911 (+ (- ?x907 (* l_1_2_2 (+ (- _a_1_) (* 81.0 _a_2_)))) (* 162.0 l_1_2_6))))
 (= ?x911 0.0))))
(assert
 (let ((?x962 (* (/ 7338681.0 100000000000000.0) _a_2_)))
 (let ((?x964 (- (+ (+ (* _a_2_ l_1_2_11) (* _a_2_ l_1_2_2)) ?x962) l_1_2_6)))
 (= (- ?x964 (* (* l_1_2_7 _a_2_) _a_2_)) 0.0))))
(assert
 (>= l_1_2_1 0.0))
(assert
 (>= l_1_2_2 0.0))
(assert
 (>= l_1_2_3 0.0))
(assert
 (>= l_1_2_4 0.0))
(assert
 (>= l_1_2_5 0.0))
(assert
 (>= l_1_2_6 0.0))
(assert
 (>= l_1_2_7 0.0))
(assert
 (>= l_1_2_8 0.0))
(assert
 (>= l_1_2_9 0.0))
(assert
 (>= l_1_2_10 0.0))
(assert
 (>= l_1_2_11 0.0))
(assert
 (>= l_1_2_12 0.0))
(assert
 (>= l_1_2_13 0.0))
(assert
 (>= l_1_2_14 0.0))
(assert
 (>= l_1_2_15 0.0))
(assert
 (>= l_1_2_17 0.0))
(check-sat)
(get-model)